c File: flat50_3_0.col
c
c SOURCE: Joseph Culberson (joe@cs.ualberta.ca)
c DESCRIPTION: Quasi-random coloring problem
c              generated with flatness = 0
c                             probability = 0.139
c                             known coloring = 3
c                             random seed = 1875
c              Creation Date:  Tue Jun  9 12:20:04 1998
c Maximum degree = 8 Minimum degree = 1
c p edge 50 115
c cnf created by edge2cnf
p cnf 150 545
-1 -2 0
-1 -3 0
-2 -3 0
1 2 3 0
-4 -5 0
-4 -6 0
-5 -6 0
4 5 6 0
-7 -8 0
-7 -9 0
-8 -9 0
7 8 9 0
-10 -11 0
-10 -12 0
-11 -12 0
10 11 12 0
-13 -14 0
-13 -15 0
-14 -15 0
13 14 15 0
-16 -17 0
-16 -18 0
-17 -18 0
16 17 18 0
-19 -20 0
-19 -21 0
-20 -21 0
19 20 21 0
-22 -23 0
-22 -24 0
-23 -24 0
22 23 24 0
-25 -26 0
-25 -27 0
-26 -27 0
25 26 27 0
-28 -29 0
-28 -30 0
-29 -30 0
28 29 30 0
-31 -32 0
-31 -33 0
-32 -33 0
31 32 33 0
-34 -35 0
-34 -36 0
-35 -36 0
34 35 36 0
-37 -38 0
-37 -39 0
-38 -39 0
37 38 39 0
-40 -41 0
-40 -42 0
-41 -42 0
40 41 42 0
-43 -44 0
-43 -45 0
-44 -45 0
43 44 45 0
-46 -47 0
-46 -48 0
-47 -48 0
46 47 48 0
-49 -50 0
-49 -51 0
-50 -51 0
49 50 51 0
-52 -53 0
-52 -54 0
-53 -54 0
52 53 54 0
-55 -56 0
-55 -57 0
-56 -57 0
55 56 57 0
-58 -59 0
-58 -60 0
-59 -60 0
58 59 60 0
-61 -62 0
-61 -63 0
-62 -63 0
61 62 63 0
-64 -65 0
-64 -66 0
-65 -66 0
64 65 66 0
-67 -68 0
-67 -69 0
-68 -69 0
67 68 69 0
-70 -71 0
-70 -72 0
-71 -72 0
70 71 72 0
-73 -74 0
-73 -75 0
-74 -75 0
73 74 75 0
-76 -77 0
-76 -78 0
-77 -78 0
76 77 78 0
-79 -80 0
-79 -81 0
-80 -81 0
79 80 81 0
-82 -83 0
-82 -84 0
-83 -84 0
82 83 84 0
-85 -86 0
-85 -87 0
-86 -87 0
85 86 87 0
-88 -89 0
-88 -90 0
-89 -90 0
88 89 90 0
-91 -92 0
-91 -93 0
-92 -93 0
91 92 93 0
-94 -95 0
-94 -96 0
-95 -96 0
94 95 96 0
-97 -98 0
-97 -99 0
-98 -99 0
97 98 99 0
-100 -101 0
-100 -102 0
-101 -102 0
100 101 102 0
-103 -104 0
-103 -105 0
-104 -105 0
103 104 105 0
-106 -107 0
-106 -108 0
-107 -108 0
106 107 108 0
-109 -110 0
-109 -111 0
-110 -111 0
109 110 111 0
-112 -113 0
-112 -114 0
-113 -114 0
112 113 114 0
-115 -116 0
-115 -117 0
-116 -117 0
115 116 117 0
-118 -119 0
-118 -120 0
-119 -120 0
118 119 120 0
-121 -122 0
-121 -123 0
-122 -123 0
121 122 123 0
-124 -125 0
-124 -126 0
-125 -126 0
124 125 126 0
-127 -128 0
-127 -129 0
-128 -129 0
127 128 129 0
-130 -131 0
-130 -132 0
-131 -132 0
130 131 132 0
-133 -134 0
-133 -135 0
-134 -135 0
133 134 135 0
-136 -137 0
-136 -138 0
-137 -138 0
136 137 138 0
-139 -140 0
-139 -141 0
-140 -141 0
139 140 141 0
-142 -143 0
-142 -144 0
-143 -144 0
142 143 144 0
-145 -146 0
-145 -147 0
-146 -147 0
145 146 147 0
-148 -149 0
-148 -150 0
-149 -150 0
148 149 150 0
-52 -1 0
-53 -2 0
-54 -3 0
-67 -1 0
-68 -2 0
-69 -3 0
-73 -1 0
-74 -2 0
-75 -3 0
-88 -1 0
-89 -2 0
-90 -3 0
-142 -1 0
-143 -2 0
-144 -3 0
-145 -4 0
-146 -5 0
-147 -6 0
-61 -7 0
-62 -8 0
-63 -9 0
-109 -7 0
-110 -8 0
-111 -9 0
-82 -10 0
-83 -11 0
-84 -12 0
-127 -10 0
-128 -11 0
-129 -12 0
-136 -10 0
-137 -11 0
-138 -12 0
-139 -10 0
-140 -11 0
-141 -12 0
-142 -10 0
-143 -11 0
-144 -12 0
-55 -13 0
-56 -14 0
-57 -15 0
-73 -13 0
-74 -14 0
-75 -15 0
-88 -13 0
-89 -14 0
-90 -15 0
-91 -13 0
-92 -14 0
-93 -15 0
-106 -13 0
-107 -14 0
-108 -15 0
-112 -13 0
-113 -14 0
-114 -15 0
-124 -13 0
-125 -14 0
-126 -15 0
-58 -16 0
-59 -17 0
-60 -18 0
-97 -16 0
-98 -17 0
-99 -18 0
-124 -16 0
-125 -17 0
-126 -18 0
-148 -16 0
-149 -17 0
-150 -18 0
-52 -19 0
-53 -20 0
-54 -21 0
-55 -19 0
-56 -20 0
-57 -21 0
-97 -19 0
-98 -20 0
-99 -21 0
-100 -19 0
-101 -20 0
-102 -21 0
-109 -19 0
-110 -20 0
-111 -21 0
-139 -19 0
-140 -20 0
-141 -21 0
-145 -19 0
-146 -20 0
-147 -21 0
-148 -19 0
-149 -20 0
-150 -21 0
-52 -22 0
-53 -23 0
-54 -24 0
-67 -22 0
-68 -23 0
-69 -24 0
-91 -22 0
-92 -23 0
-93 -24 0
-94 -22 0
-95 -23 0
-96 -24 0
-127 -22 0
-128 -23 0
-129 -24 0
-64 -25 0
-65 -26 0
-66 -27 0
-91 -25 0
-92 -26 0
-93 -27 0
-73 -28 0
-74 -29 0
-75 -30 0
-82 -28 0
-83 -29 0
-84 -30 0
-103 -28 0
-104 -29 0
-105 -30 0
-130 -28 0
-131 -29 0
-132 -30 0
-88 -31 0
-89 -32 0
-90 -33 0
-103 -31 0
-104 -32 0
-105 -33 0
-115 -31 0
-116 -32 0
-117 -33 0
-58 -34 0
-59 -35 0
-60 -36 0
-64 -34 0
-65 -35 0
-66 -36 0
-94 -34 0
-95 -35 0
-96 -36 0
-124 -34 0
-125 -35 0
-126 -36 0
-133 -34 0
-134 -35 0
-135 -36 0
-136 -34 0
-137 -35 0
-138 -36 0
-148 -34 0
-149 -35 0
-150 -36 0
-58 -37 0
-59 -38 0
-60 -39 0
-61 -37 0
-62 -38 0
-63 -39 0
-115 -37 0
-116 -38 0
-117 -39 0
-127 -37 0
-128 -38 0
-129 -39 0
-136 -37 0
-137 -38 0
-138 -39 0
-52 -40 0
-53 -41 0
-54 -42 0
-73 -40 0
-74 -41 0
-75 -42 0
-82 -40 0
-83 -41 0
-84 -42 0
-85 -40 0
-86 -41 0
-87 -42 0
-121 -40 0
-122 -41 0
-123 -42 0
-130 -40 0
-131 -41 0
-132 -42 0
-136 -40 0
-137 -41 0
-138 -42 0
-145 -40 0
-146 -41 0
-147 -42 0
-79 -43 0
-80 -44 0
-81 -45 0
-82 -43 0
-83 -44 0
-84 -45 0
-103 -43 0
-104 -44 0
-105 -45 0
-121 -43 0
-122 -44 0
-123 -45 0
-61 -46 0
-62 -47 0
-63 -48 0
-139 -46 0
-140 -47 0
-141 -48 0
-148 -46 0
-149 -47 0
-150 -48 0
-55 -49 0
-56 -50 0
-57 -51 0
-64 -49 0
-65 -50 0
-66 -51 0
-76 -49 0
-77 -50 0
-78 -51 0
-109 -49 0
-110 -50 0
-111 -51 0
-127 -49 0
-128 -50 0
-129 -51 0
-115 -52 0
-116 -53 0
-117 -54 0
-109 -55 0
-110 -56 0
-111 -57 0
-115 -55 0
-116 -56 0
-117 -57 0
-124 -55 0
-125 -56 0
-126 -57 0
-139 -55 0
-140 -56 0
-141 -57 0
-130 -61 0
-131 -62 0
-132 -63 0
-142 -61 0
-143 -62 0
-144 -63 0
-124 -64 0
-125 -65 0
-126 -66 0
-130 -64 0
-131 -65 0
-132 -66 0
-139 -64 0
-140 -65 0
-141 -66 0
-148 -64 0
-149 -65 0
-150 -66 0
-118 -67 0
-119 -68 0
-120 -69 0
-121 -67 0
-122 -68 0
-123 -69 0
-130 -67 0
-131 -68 0
-132 -69 0
-145 -67 0
-146 -68 0
-147 -69 0
-103 -70 0
-104 -71 0
-105 -72 0
-112 -70 0
-113 -71 0
-114 -72 0
-115 -73 0
-116 -74 0
-117 -75 0
-142 -73 0
-143 -74 0
-144 -75 0
-106 -76 0
-107 -77 0
-108 -78 0
-124 -76 0
-125 -77 0
-126 -78 0
-139 -79 0
-140 -80 0
-141 -81 0
-103 -82 0
-104 -83 0
-105 -84 0
-127 -82 0
-128 -83 0
-129 -84 0
-133 -85 0
-134 -86 0
-135 -87 0
-121 -88 0
-122 -89 0
-123 -90 0
-106 -91 0
-107 -92 0
-108 -93 0
-121 -91 0
-122 -92 0
-123 -93 0
-133 -91 0
-134 -92 0
-135 -93 0
-139 -91 0
-140 -92 0
-141 -93 0
-109 -94 0
-110 -95 0
-111 -96 0
-115 -94 0
-116 -95 0
-117 -96 0
-142 -94 0
-143 -95 0
-144 -96 0
-148 -94 0
-149 -95 0
-150 -96 0
-106 -97 0
-107 -98 0
-108 -99 0
-106 -100 0
-107 -101 0
-108 -102 0
-124 -100 0
-125 -101 0
-126 -102 0
